WARNING: for repeatability, setting FPU to use double precision
============================[ Problem Statistics ]=============================
|                                                                             |
|  Number of variables:        224150                                         |
|  Number of clauses:          520150                                         |
|  Parse time:                   0.18 s                                       |
|                                                                             |
============================[ Search Statistics ]==============================
| Conflicts |          ORIGINAL         |          LEARNT          | Progress |
|           |    Vars  Clauses Literals |    Limit  Clauses Lit/Cl |          |
===============================================================================
|       100 |  123936   498872  1120880 |   182919      100     11 | 44.708 % |
|       250 |  123936   498872  1120880 |   201211      250     13 | 44.708 % |
|       475 |  123936   498872  1120880 |   221332      475     20 | 44.708 % |
===============================================================================
restarts              : 6
conflicts             : 763            (1563 /sec)
decisions             : 9917           (0.00 % random) (20320 /sec)
propagations          : 1918558        (3931230 /sec)
conflict literals     : 23368          (7.21 % deleted)
Memory used           : 57.00 MB
CPU time              : 0.48803 s

SATISFIABLE
